p cnf 1363 1711
DNF -1025 -1034 -1035 -1038 -1040 -1042 -1046 -548 -551 -555 -559 -564 -567 -570 -578 -580 -584 -587 -84 -599 -604 -607 -608 -609 -610 -611 -612 -613 -614 -1123 -1125 -1127 -1129 -1131 -1133 -1135 -1140 -1142 -1143 -1146 -1150 -1151 -1153 -1157 -1159 -1161 -1165 -1182 -1185 -1188 -1190 -1193 -1194 -1195 -1196 -1197 -713 -717 -721 -724 -729 -730 -1243 -732 -733 -1247 -737 -739 -1251 -741 -1255 -744 -1260 -749 -1262 -752 -1264 -754 -755 -1268 -1270 -759 -1274 -764 -765 -1279 -1280 -769 -1283 -1284 -774 -1286 -778 -779 -780 -781 -782 -783 -784 -786 -1299 -1303 -1304 -1311 -1312 -1313 -1314 -1318 -1322 -1324 -861 -863 -865 -868 -872 -873 -879 -881 -893 -896 -407 -408 -414 -418 -420 -423 -986 -988 -990 -996 -998 -1003 -1004 -1006 -1014 -1018 -1020 0 1025 1034 1035 1038 1040 1042 1046 548 551 555 559 564 567 570 578 580 584 587 84 599 604 607 608 609 610 611 612 613 614 1123 1125 1127 1129 1131 1133 1135 1140 1142 1143 1146 1150 1151 1153 1157 1159 1161 1165 1182 1185 1188 1190 1193 1194 1195 1196 1197 713 717 721 724 729 730 1243 732 733 1247 737 739 1251 741 1255 744 1260 749 1262 752 1264 754 755 1268 1270 759 1274 764 765 1279 1280 769 1283 1284 774 1286 778 779 780 781 782 783 784 786 1299 1303 1304 1311 1312 1313 1314 1318 1322 1324 861 863 865 868 872 873 879 881 893 896 407 408 414 418 420 423 986 988 990 996 998 1003 1004 1006 1014 1018 1020 0 0
DNF 546 561 565 571 585 588 598 602 605 -608 1124 1126 1128 1130 1132 1134 1138 1139 1141 1144 1145 1149 1152 1156 1158 1160 1164 1168 1181 1186 1198 714 718 722 725 726 731 1246 738 1250 742 1254 745 1258 1261 750 1263 1267 756 757 1269 1273 763 1277 1278 768 1281 1282 772 773 1285 777 1289 785 1298 787 1302 1307 1310 1315 1317 1323 1325 859 862 869 871 874 880 884 892 895 403 409 410 411 416 421 424 987 989 993 995 997 1000 1005 1009 1011 1017 1021 1022 0 -546 -561 -565 -571 -585 -588 -598 -602 -605 608 -1124 -1126 -1128 -1130 -1132 -1134 -1138 -1139 -1141 -1144 -1145 -1149 -1152 -1156 -1158 -1160 -1164 -1168 -1181 -1186 -1198 -714 -718 -722 -725 -726 -731 -1246 -738 -1250 -742 -1254 -745 -1258 -1261 -750 -1263 -1267 -756 -757 -1269 -1273 -763 -1277 -1278 -768 -1281 -1282 -772 -773 -1285 -777 -1289 -785 -1298 -787 -1302 -1307 -1310 -1315 -1317 -1323 -1325 -859 -862 -869 -871 -874 -880 -884 -892 -895 -403 -409 -410 -411 -416 -421 -424 -987 -989 -993 -995 -997 -1000 -1005 -1009 -1011 -1017 -1021 -1022 0 0
DNF 864 579 1189 550 1191 1192 556 557 1036 1039 560 753 1043 -1045 0 -864 -579 -1189 -550 -1191 -1192 -556 -557 -1036 -1039 -560 -753 -1043 1045 0 0
DNF -320 -137 -138 -139 -972 -974 -591 -50 -378 -379 0 320 137 138 139 972 974 591 50 378 379 0 0
DNF 129 230 231 615 619 335 -1108 250 0 129 230 231 615 619 335 -848 250 0 -129 -230 -231 -615 -619 -335 848 1108 -250 0 0
DNF 140 -591 977 596 982 539 540 543 0 -140 591 -977 -596 -982 -539 -540 -543 0 0
DNF -1104 -689 -947 -852 -853 -1113 -1340 -1341 0 1104 689 947 852 853 1113 1340 0 1104 689 947 852 853 1113 1341 0 0
DNF -145 -82 -147 -146 -887 -888 -889 0 145 82 147 146 887 888 889 0 0
DNF -382 -28 -187 -188 -189 -190 -191 0 382 28 187 188 189 190 191 0 0
DNF 323 324 325 326 547 -592 318 0 -323 -324 -325 -326 -547 592 -318 0 0
DNF 449 450 934 239 1199 790 1211 1212 0 -449 -450 -934 -239 -1199 -790 -1211 1212 0 449 450 934 239 1199 790 -1211 -1212 0 -449 -450 -934 -239 -1199 -790 1211 -1212 0 0
DNF 480 289 677 359 360 664 668 478 0 480 -289 -677 -359 -360 -664 -668 -478 0 -480 -289 -677 -359 -360 -664 -668 478 0 -480 289 677 359 360 664 668 -478 0 0
DNF 673 -546 -548 552 553 658 477 0 673 -546 -547 552 553 658 477 0 -673 547 548 -552 -553 -658 -477 0 -673 546 -552 -553 8 -658 -477 0 673 -547 552 553 -8 658 477 0 673 -548 552 553 -8 658 477 0 0
DNF -260 -265 -266 -273 -637 -1342 -1343 0 260 265 266 273 637 1342 0 260 265 266 273 637 1343 0 0
DNF -516 -517 -1350 -1351 -494 -531 -534 0 516 517 1350 494 531 534 0 516 517 1351 494 531 534 0 0
DNF -1216 -1092 -1066 -1072 -1073 -1332 -1333 0 1216 1092 1066 1072 1073 1332 0 1216 1092 1066 1072 1073 1333 0 0
DNF -1348 -1349 -526 -527 -528 -499 -536 0 1348 526 527 528 499 536 0 1349 526 527 528 499 536 0 0
DNF 674 653 655 656 -1044 860 0 -896 674 653 655 656 860 -895 0 896 -674 -653 -655 -656 1044 -860 0 -674 -653 -655 -656 1044 -860 895 0 0
DNF -69 -427 -178 -179 -180 -181 0 69 427 178 179 180 181 0 0
DNF -644 616 617 822 343 0 -643 616 617 822 343 0 -640 616 617 822 343 0 616 617 -274 822 343 0 640 643 644 -616 -617 274 -822 -343 0 0
DNF -321 723 212 148 213 217 0 321 -723 -212 -148 -213 -217 0 0
DNF 417 132 -427 152 153 154 0 -417 -132 427 -152 -153 -154 0 0
DNF -581 583 425 309 313 314 0 581 -583 -425 -309 -313 -314 0 0
DNF -205 -206 -207 -208 -315 -124 0 205 206 207 208 315 124 0 0
DNF 155 141 -442 603 156 221 0 -155 -141 442 -603 -156 -221 0 0
DNF 740 398 302 304 303 -383 0 -740 -398 -302 -304 -303 383 0 0
DNF 439 142 438 758 760 -761 0 -439 -142 -438 -758 -760 761 0 0
DNF -226 -451 -452 -455 -473 92 0 226 451 452 455 473 -92 0 0
DNF 419 198 199 200 -433 157 0 -419 -198 -199 -200 433 -157 0 0
DNF -195 -196 -197 -1321 -10 -222 0 195 196 197 1321 10 222 0 0
DNF 385 387 388 389 -390 566 0 -385 -387 -388 -389 390 -566 0 0
DNF -115 -150 -151 -251 -252 -574 0 115 150 151 251 252 574 0 0
DNF -870 -81 -278 -279 -376 -377 0 870 81 278 279 376 377 0 0
DNF 1102 855 850 856 950 951 1112 0 -1102 -855 -850 856 -950 -951 -1112 0 -1102 855 -850 -856 -950 -951 -1112 0 1102 -855 850 -856 950 951 1112 0 0
DNF 801 903 904 912 916 795 799 0 801 -903 -904 -912 -916 -795 -799 0 -801 -903 -904 -912 -916 -795 799 0 -801 903 904 912 916 795 -799 0 0
DNF 930 -1077 919 926 927 0 930 -1076 919 926 927 0 930 -1074 919 926 927 0 -930 1074 1076 1077 -919 -926 -927 0 0
DNF -803 -804 463 466 467 470 -797 0 804 -463 -466 -467 -470 0 803 -463 -466 -467 -470 0 -463 -466 -467 -470 797 0 0
DNF 994 964 -998 967 968 -1015 0 994 964 -997 -998 967 968 0 -994 -964 997 -967 -968 1015 0 -994 -964 998 -967 -968 119 0 994 964 -997 967 968 -119 0 994 964 967 968 -119 -1015 0 0
DNF 679 296 372 373 -411 -414 0 679 296 372 373 -411 -413 0 -679 -296 -372 -373 413 414 0 -679 -296 43 -372 -373 411 0 679 296 -43 372 373 -413 0 679 296 -43 372 373 -414 0 0
DNF -868 -869 816 241 817 1052 0 -867 -869 816 241 817 1052 0 867 868 -816 -241 -817 -1052 0 -867 -5 816 241 817 1052 0 -868 -5 816 241 817 1052 0 869 5 -816 -241 -817 -1052 0 0
DNF 1059 -744 -745 818 819 243 0 1059 -743 -745 818 819 243 0 -1059 743 744 -818 -819 -243 0 1059 -743 818 819 243 -90 0 1059 -744 818 819 243 -90 0 -1059 745 -818 -819 -243 90 0 0
DNF 234 -1135 -1138 247 248 1051 0 234 -1135 -1137 247 248 1051 0 -234 1137 1138 -247 -248 -1051 0 64 -234 1135 -247 -248 -1051 0 -64 234 -1137 247 248 1051 0 -64 234 -1138 247 248 1051 0 0
DNF 800 746 -749 -750 847 799 0 800 746 -748 -750 847 799 0 -800 -746 748 749 -847 -799 0 800 -2 746 -748 847 799 0 800 -2 746 -749 847 799 0 -800 2 -746 750 -847 -799 0 0
DNF -737 -738 1079 1080 1083 735 0 -736 -738 1079 1080 1083 735 0 736 737 -1079 -1080 -1083 -735 0 -736 1079 1080 1083 -30 735 0 -737 1079 1080 1083 -30 735 0 738 -1079 -1080 -1083 30 -735 0 0
DNF 963 734 -757 -759 957 958 0 963 734 -757 -758 957 958 0 -963 -734 758 759 -957 -958 0 65 -963 -734 757 -957 -958 0 -65 963 734 -758 957 958 0 -65 963 734 -759 957 958 0 0
DNF 1219 1221 1222 -1255 1226 -1258 0 1219 1221 1222 -1255 -1257 1226 0 -1219 -1221 -1222 1257 -1226 1258 0 -1219 -1221 -1222 1255 -1226 20 0 1219 1221 1222 -1257 1226 -20 0 1219 1221 1222 1226 -1258 -20 0 0
DNF 1217 1218 1220 719 -721 -722 0 1217 1218 1220 719 -720 -722 0 -1217 -1218 -1220 -719 720 721 0 1217 1218 1220 -109 719 -720 0 1217 1218 1220 -109 719 -721 0 -1217 -1218 -1220 109 -719 722 0 0
DNF 687 -729 -726 695 694 697 0 687 -728 -726 695 694 697 0 -687 728 729 -695 -694 -697 0 -687 726 -695 -694 -697 60 0 687 -728 695 694 697 -60 0 687 -729 695 694 697 -60 0 0
DNF 292 681 370 371 -605 -607 0 292 681 370 371 -605 -606 0 -292 -681 -370 -371 606 607 0 -292 -681 110 -370 -371 605 0 292 681 -110 370 371 -606 0 292 681 -110 370 371 -607 0 0
DNF -1283 -1296 1237 1239 1240 1242 0 -1282 -1283 1237 1239 1240 1242 0 1282 1296 -1237 -1239 -1240 -1242 0 1283 -1237 21 -1239 -1240 -1242 0 -1282 1237 -21 1239 1240 1242 0 -1296 1237 -21 1239 1240 1242 0 0
DNF 682 692 693 855 -1146 -1147 0 682 692 693 855 -1145 -1146 0 -682 -692 -693 -855 1145 1147 0 58 -682 -692 -693 -855 1146 0 -58 682 692 693 855 -1145 0 -58 682 692 693 855 -1147 0 0
DNF 1088 1089 1094 715 -717 -718 0 1088 1089 1094 715 -716 -718 0 -1088 -1089 -1094 -715 716 717 0 1088 1089 1094 715 -716 -52 0 1088 1089 1094 715 -717 -52 0 -1088 -1089 -1094 -715 718 52 0 0
DNF 256 352 263 264 -407 -409 0 256 352 263 264 -404 -409 0 -256 -352 -263 -264 404 407 0 -256 -352 -263 -264 409 94 0 256 352 263 264 -404 -94 0 256 352 263 264 -407 -94 0 0
DNF -416 -418 280 285 286 351 0 -416 -417 280 285 286 351 0 417 418 -280 -285 -286 -351 0 416 77 -280 -285 -286 -351 0 -417 -77 280 285 286 351 0 -418 -77 280 285 286 351 0 0
DNF -993 1060 235 244 245 -990 0 -992 1060 235 244 245 -990 0 992 993 -1060 -235 -244 -245 0 35 -1060 -235 -244 -245 990 0 -992 -35 1060 235 244 245 0 -993 -35 1060 235 244 245 0 0
DNF -1025 686 690 691 856 -1022 0 -1024 686 690 691 856 -1022 0 1024 1025 -686 -690 -691 -856 0 38 -686 -690 -691 -856 1022 0 -1024 -38 686 690 691 856 0 -1025 -38 686 690 691 856 0 0
DNF 1229 1231 1232 1241 -1308 -1279 0 1229 1231 1232 1241 -1278 -1279 0 -1229 -1231 -1232 -1241 1308 1278 0 -1229 78 -1231 -1232 -1241 1279 0 1229 -78 1231 1232 1241 -1278 0 1229 -78 1231 1232 1241 -1308 0 0
DNF 544 1202 1203 -724 1206 -725 0 544 1202 1203 -723 1206 -725 0 -544 -1202 -1203 724 723 -1206 0 544 -12 1202 1203 -723 1206 0 544 -12 1202 1203 -724 1206 0 -544 12 -1202 -1203 -1206 725 0 0
DNF 1120 999 -1000 -1003 1230 1119 0 1120 999 -1000 -1002 1230 1119 0 -1120 -999 1002 1003 -1230 -1119 0 -1120 101 -999 1000 -1230 -1119 0 1120 -101 999 -1002 1230 1119 0 1120 -101 999 -1003 1230 1119 0 0
DNF 512 490 -879 -882 500 501 0 512 490 -879 -880 500 501 0 -512 -490 880 882 -500 -501 0 -512 4 -490 879 -500 -501 0 512 -4 490 -880 500 501 0 512 -4 490 -882 500 501 0 0
DNF -741 -742 935 936 1209 634 0 -740 -742 935 936 1209 634 0 740 741 -935 -936 -1209 -634 0 -740 935 936 -49 1209 634 0 -741 935 936 -49 1209 634 0 742 -935 -936 49 -1209 -634 0 0
DNF 513 497 498 405 -408 -410 0 513 497 498 405 -406 -410 0 -513 -497 -498 -405 406 408 0 513 497 498 405 -406 -87 0 513 497 498 405 -87 -408 0 -513 -497 -498 -405 87 410 0 0
DNF 801 802 -1161 -1164 942 796 0 801 802 -1161 -1163 942 796 0 -801 -802 1163 1164 -942 -796 0 -801 -802 1161 -942 -796 62 0 801 802 -1163 942 796 -62 0 801 802 -1164 942 796 -62 0 0
DNF 1097 1099 1100 1227 -1270 -1273 0 1097 1099 1100 1227 -1270 -1272 0 -1097 -1099 -1100 -1227 1272 1273 0 -1097 -1099 -1100 -1227 45 1270 0 1097 1099 1100 1227 -45 -1272 0 1097 1099 1100 1227 -45 -1273 0 0
DNF 1093 1095 1096 1228 -1264 -1267 0 1093 1095 1096 1228 -1264 -1266 0 -1093 -1095 -1096 -1228 1266 1267 0 -1093 -1095 -1096 -1228 1264 59 0 1093 1095 1096 1228 -1266 -59 0 1093 1095 1096 1228 -1267 -59 0 0
DNF 900 582 -584 -585 845 846 0 900 582 -583 -585 845 846 0 -900 -582 583 584 -845 -846 0 -99 900 582 -583 845 846 0 -99 900 582 -584 845 846 0 99 -900 -582 585 -845 -846 0 0
DNF 489 -588 -589 502 503 511 0 489 -587 -588 502 503 511 0 -489 587 589 -502 -503 -511 0 -489 588 15 -502 -503 -511 0 489 -587 -15 502 503 511 0 489 -589 -15 502 503 511 0 0
DNF 514 -1159 491 -1166 495 496 0 514 -1159 -1160 491 495 496 0 -514 1160 -491 1166 -495 -496 0 -514 1159 74 -491 -495 -496 0 514 -1160 -74 491 495 496 0 514 -74 491 -1166 495 496 0 0
DNF -420 -421 538 375 505 506 0 -419 -421 538 375 505 506 0 419 420 -538 -375 -505 -506 0 -419 -111 538 375 505 506 0 -420 -111 538 375 505 506 0 421 111 -538 -375 -505 -506 0 0
DNF 522 523 492 -755 541 -766 0 522 523 492 -755 -756 541 0 -522 -523 -492 756 -541 766 0 68 -522 -523 -492 755 -541 0 -68 522 523 492 -756 541 0 -68 522 523 492 541 -766 0 0
DNF -770 493 537 -730 507 508 0 493 537 -730 507 508 -731 0 770 -493 -537 -507 -508 731 0 -493 118 -537 730 -507 -508 0 493 -118 537 507 508 -731 0 -770 493 -118 537 507 508 0 0
DNF -1284 902 -1305 906 907 944 0 -1284 -1285 902 906 907 944 0 1285 -902 1305 -906 -907 -944 0 1284 -902 -906 -907 -944 121 0 -1285 902 906 907 944 -121 0 902 -1305 906 907 944 -121 0 0
DNF -1185 -1186 901 940 908 909 0 -1184 -1186 901 940 908 909 0 1184 1185 -901 -940 -908 -909 0 1186 -901 -940 -908 -909 22 0 -1184 901 940 908 909 -22 0 -1185 901 940 908 909 -22 0 0
DNF -1250 1225 1078 1081 1082 -1247 0 -1249 1225 1078 1081 1082 -1247 0 1249 1250 -1225 -1078 -1081 -1082 0 70 -1225 -1078 -1081 -1082 1247 0 -1249 -70 1225 1078 1081 1082 0 -1250 -70 1225 1078 1081 1082 0 0
DNF 1259 1204 1205 -1277 -1274 1053 0 1259 1204 1205 -1274 -1276 1053 0 -1259 -1204 -1205 1277 1276 -1053 0 -1259 -1204 -1205 1274 27 -1053 0 1259 1204 1205 -27 -1276 1053 0 1259 1204 1205 -1277 -27 1053 0 0
DNF 1098 568 -570 -571 1085 1086 0 1098 568 -569 -571 1085 1086 0 -1098 -568 569 570 -1085 -1086 0 1098 -85 568 -569 1085 1086 0 1098 -85 568 -570 1085 1086 0 -1098 85 -568 571 -1085 -1086 0 0
DNF 937 938 -713 -714 635 1212 0 -712 937 938 -714 635 1212 0 712 -937 -938 713 -635 -1212 0 -102 -712 937 938 635 1212 0 -102 937 938 -713 635 1212 0 102 -937 -938 714 -635 -1212 0 0
DNF 1010 1235 1236 -1011 1238 -1014 0 1010 1235 1236 -1011 1238 -1013 0 -1010 -1235 -1236 -1238 1014 1013 0 -1010 -1235 -1236 1011 -1238 88 0 1010 1235 1236 1238 -88 -1013 0 1010 1235 1236 1238 -1014 -88 0 0
DNF 809 939 812 813 -1020 -1021 0 809 939 812 813 -1019 -1021 0 -809 -939 -812 -813 1019 1020 0 -809 -939 -812 -813 23 1021 0 809 939 812 813 -23 -1019 0 809 939 812 813 -23 -1020 0 0
DNF -1251 932 1223 -1254 1207 1208 0 -1251 932 -1253 1223 1207 1208 0 -932 1253 -1223 1254 -1207 -1208 0 1251 -932 6 -1223 -1207 -1208 0 932 -1253 -6 1223 1207 1208 0 932 -6 1223 -1254 1207 1208 0 0
1363 0
232 0
-233 0
231 0
-127 -1361 0
125 -1361 0
127 -1362 0
-125 -1362 0
-1362 1360 0
-1361 1360 0
824 125 0
-840 126 0
-825 126 0
-840 -828 0
826 127 0
842 824 0
-843 825 0
-837 -832 0
-833 -836 0
844 826 0
623 -839 0
-623 839 0
623 -842 0
-623 842 0
624 -840 0
624 -843 0
625 -841 0
-625 841 0
625 -844 0
-625 844 0
631 623 0
-341 624 0
-341 -627 0
-341 631 0
-628 631 0
631 625 0
366 -630 0
-366 630 0
366 -631 0
-366 631 0
-290 -366 0
-367 -366 0
-368 -366 0
-361 -366 0
-358 -361 0
-481 -361 0
-363 -361 0
365 363 0
-365 -363 0
355 -364 0
-355 364 0
355 -365 0
-355 365 0
355 -484 0
-355 484 0
-560 -355 0
894 -1044 0
-894 1044 0
894 -1045 0
-894 1045 0
1048 894 0
1050 894 0
72 -1049 0
-72 1049 0
72 -1050 0
-72 1050 0
33 -1047 0
-33 1047 0
33 -1048 0
-33 1048 0
56 558 0
739 558 0
362 -481 0
-362 481 0
362 -482 0
-362 482 0
362 -485 0
-362 485 0
1316 -1319 0
-1316 1319 0
1316 -1320 0
-1316 1320 0
1321 1316 0
-1321 -1316 0
360 358 0
-360 -358 0
369 -479 0
-369 479 0
369 -480 0
-369 480 0
369 -483 0
-369 483 0
75 -441 0
-75 441 0
75 -442 0
-75 442 0
75 -445 0
-75 445 0
354 -356 0
-354 356 0
354 -357 0
-354 357 0
354 -478 0
-354 478 0
-557 -354 0
93 554 0
733 554 0
-479 -368 0
-353 -368 0
356 353 0
-356 -353 0
672 367 0
676 672 0
675 672 0
677 672 0
678 672 0
295 -297 0
-295 297 0
295 -298 0
-295 298 0
295 -678 0
-295 678 0
-556 -295 0
67 549 0
732 549 0
679 675 0
-679 -675 0
319 -412 0
-319 412 0
319 -413 0
-319 413 0
319 -430 0
-319 430 0
431 319 0
-431 -319 0
113 -218 0
-113 218 0
113 -219 0
-113 219 0
113 -220 0
-113 220 0
113 -431 0
-113 431 0
486 -670 0
-486 670 0
486 -671 0
-486 671 0
486 -676 0
-486 676 0
488 486 0
-488 -486 0
291 -487 0
-291 487 0
291 -488 0
-291 488 0
-484 -1352 0
485 -1352 0
484 -1353 0
-485 -1353 0
-1353 291 0
-1352 291 0
47 -592 0
-47 592 0
47 -593 0
-47 593 0
47 -601 0
-47 601 0
667 665 0
668 665 0
669 665 0
671 665 0
288 -662 0
-288 662 0
288 -663 0
-288 663 0
288 -669 0
-288 669 0
660 -666 0
-660 666 0
660 -667 0
-660 667 0
327 -328 0
-327 328 0
327 -329 0
-327 329 0
327 -606 0
-327 606 0
443 327 0
-443 -327 0
91 -170 0
-91 170 0
91 -171 0
-91 171 0
91 -443 0
-91 443 0
91 -444 0
-91 444 0
294 -299 0
-294 299 0
294 -300 0
-294 300 0
294 -680 0
-294 680 0
-753 -294 0
105 751 0
754 751 0
-487 -290 0
-370 -290 0
-287 -290 0
-293 -290 0
300 293 0
-300 -293 0
662 287 0
359 287 0
-616 -340 0
-128 -340 0
-223 -340 0
-332 -340 0
-224 341 0
-224 -332 0
-224 -128 0
-224 -616 0
-616 -342 0
-128 -342 0
-225 -342 0
-332 -342 0
-334 -332 0
-335 -332 0
-948 -848 0
-853 -848 0
-950 -848 0
-851 -848 0
854 851 0
-854 -851 0
-955 -854 0
946 -954 0
-946 954 0
946 -955 0
-946 955 0
875 -1001 0
-875 1001 0
875 -1002 0
-875 1002 0
875 -1291 0
-875 1291 0
1293 875 0
-1293 -875 0
83 -134 0
-83 134 0
83 -135 0
-83 135 0
83 -1292 0
-83 1292 0
83 -1293 0
-83 1293 0
42 -1308 0
-42 1308 0
42 -1309 0
-42 1309 0
966 953 0
967 953 0
98 -1015 0
-98 1015 0
98 -1016 0
-98 1016 0
960 -965 0
-960 965 0
960 -966 0
-960 966 0
963 960 0
-963 -960 0
53 -761 0
-53 761 0
53 -762 0
-53 762 0
53 -1121 0
-53 1121 0
53 -1122 0
-53 1122 0
961 952 0
958 952 0
956 -961 0
-956 961 0
956 -962 0
-956 962 0
968 956 0
-968 -956 0
877 -1023 0
-877 1023 0
877 -1024 0
-877 1024 0
877 -1173 0
-877 1173 0
1170 877 0
-1170 -877 0
112 -1117 0
-112 1117 0
112 -1118 0
-112 1118 0
112 -1170 0
-112 1170 0
112 -1172 0
-112 1172 0
34 -1147 0
-34 1147 0
34 -1148 0
-34 1148 0
-696 -1340 0
697 -1340 0
696 -1341 0
-697 -1341 0
426 -727 0
-426 727 0
426 -728 0
-426 728 0
426 -857 0
-426 857 0
575 426 0
-575 -426 0
114 -436 0
-114 436 0
114 -437 0
-114 437 0
114 -573 0
-114 573 0
114 -575 0
-114 575 0
576 -684 0
-576 684 0
576 -685 0
-576 685 0
576 -696 0
-576 696 0
-579 -576 0
79 577 0
580 577 0
849 -948 0
-849 948 0
849 -949 0
-849 949 0
849 -1103 0
-849 1103 0
876 -1012 0
-876 1012 0
876 -1013 0
-876 1013 0
876 -1169 0
-876 1169 0
1171 876 0
-1171 -876 0
37 -158 0
-37 158 0
37 -159 0
-37 159 0
37 -1171 0
-37 1171 0
37 -1290 0
-37 1290 0
19 -1296 0
-19 1296 0
19 -1297 0
-19 1297 0
267 -1108 0
-267 1108 0
267 -1109 0
-267 1109 0
-268 -267 0
-270 -267 0
-272 -267 0
-273 -267 0
-648 -1342 0
650 -1342 0
648 -1343 0
-650 -1343 0
348 -649 0
-348 649 0
348 -650 0
-348 650 0
348 -651 0
-348 651 0
312 -562 0
-312 562 0
312 -563 0
-312 563 0
315 312 0
-315 -312 0
646 -647 0
-646 647 0
646 -648 0
-646 648 0
646 -1032 0
-646 1032 0
-1043 -646 0
57 1041 0
1195 1041 0
255 -271 0
-255 271 0
255 -272 0
-255 272 0
-258 -1358 0
263 -1358 0
258 -1359 0
-263 -1359 0
-1359 255 0
-1358 255 0
386 -401 0
-386 401 0
386 -402 0
-386 402 0
386 -404 0
-386 404 0
391 386 0
-391 -386 0
51 -209 0
-51 209 0
51 -210 0
-51 210 0
51 -211 0
-51 211 0
51 -391 0
-51 391 0
254 -257 0
-254 257 0
254 -258 0
-254 258 0
254 -891 0
-254 891 0
-1036 -254 0
80 1033 0
1034 1033 0
262 -269 0
-262 269 0
262 -270 0
-262 270 0
262 -277 0
-262 277 0
-641 -1354 0
349 -1354 0
641 -1355 0
-349 -1355 0
-1355 262 0
-1354 262 0
347 -349 0
-347 349 0
347 -350 0
-347 350 0
347 -639 0
-347 639 0
106 -307 0
-106 307 0
106 -308 0
-106 308 0
106 -390 0
-106 390 0
346 -641 0
-346 641 0
346 -642 0
-346 642 0
346 -1031 0
-346 1031 0
-1189 -346 0
54 1187 0
1312 1187 0
-284 -1356 0
286 -1356 0
284 -1357 0
-286 -1357 0
-1357 268 0
-1356 268 0
282 -283 0
-282 283 0
282 -284 0
-282 284 0
282 -890 0
-282 890 0
-1039 -282 0
41 1037 0
1040 1037 0
249 -333 0
-249 333 0
249 -334 0
-249 334 0
249 -618 0
-249 618 0
-926 -249 0
1096 1091 0
-1096 -1091 0
44 -1265 0
-44 1265 0
44 -1266 0
-44 1266 0
1089 1087 0
-1089 -1087 0
160 -163 0
-160 163 0
160 -164 0
-160 164 0
160 -716 0
-160 716 0
380 160 0
-380 -160 0
108 -165 0
-108 165 0
108 -166 0
-108 166 0
108 -167 0
-108 167 0
108 -380 0
-108 380 0
1100 1090 0
-1100 -1090 0
61 -1271 0
-61 1271 0
61 -1272 0
-61 1272 0
1086 1084 0
-1086 -1084 0
305 -316 0
-305 316 0
305 -317 0
-305 317 0
305 -569 0
-305 569 0
306 305 0
-306 -305 0
18 -174 0
-18 174 0
18 -175 0
-18 175 0
18 -176 0
-18 176 0
18 -306 0
-18 306 0
-1095 -1332 0
1094 -1332 0
1095 -1333 0
-1094 -1333 0
1075 1074 0
-1075 -1074 0
-1080 -1075 0
-1067 -1075 0
-1081 -1075 0
39 -1248 0
-39 1248 0
39 -1249 0
-39 1249 0
1069 1067 0
1071 1067 0
1073 1067 0
1065 -1070 0
-1065 1070 0
1065 -1071 0
-1065 1071 0
-1221 -1326 0
1220 -1326 0
1221 -1327 0
-1220 -1327 0
-1327 1065 0
-1326 1065 0
384 -394 0
-384 394 0
384 -395 0
-384 395 0
384 -720 0
-384 720 0
545 384 0
-545 -384 0
3 -172 0
-3 172 0
3 -173 0
-3 173 0
3 -177 0
-3 177 0
3 -545 0
-3 545 0
40 -1256 0
-40 1256 0
40 -1257 0
-40 1257 0
1064 -1068 0
-1064 1068 0
1064 -1069 0
-1064 1069 0
1064 -1215 0
-1064 1215 0
-1099 -1330 0
1098 -1330 0
1099 -1331 0
-1098 -1331 0
-1331 1064 0
-1330 1064 0
381 -396 0
-381 396 0
381 -397 0
-381 397 0
381 -736 0
-381 736 0
382 381 0
-382 -381 0
1215 1076 0
1213 1076 0
1216 1076 0
1214 1076 0
1222 1214 0
-1222 -1214 0
1218 1213 0
-1218 -1213 0
918 -924 0
-918 924 0
918 -925 0
-918 925 0
331 918 0
1054 918 0
336 918 0
337 336 0
338 336 0
339 336 0
1204 339 0
-1204 -339 0
73 -1275 0
-73 1275 0
73 -1276 0
-73 1276 0
-789 -338 0
-790 -338 0
-792 -338 0
-794 -338 0
237 -793 0
-237 793 0
237 -794 0
-237 794 0
237 -1057 0
-237 1057 0
1201 237 0
-1201 -237 0
1061 -1200 0
-1061 1200 0
1061 -1201 0
-1061 1201 0
-1208 -1328 0
1209 -1328 0
1208 -1329 0
-1209 -1329 0
-1329 1061 0
-1328 1061 0
55 -203 0
-55 203 0
55 -204 0
-55 204 0
55 -383 0
-55 383 0
24 -1252 0
-24 1252 0
24 -1253 0
-24 1253 0
238 -791 0
-238 791 0
238 -792 0
-238 792 0
238 -1056 0
-238 1056 0
392 -399 0
-392 399 0
392 -400 0
-392 400 0
392 -743 0
-392 743 0
393 392 0
-393 -392 0
76 -214 0
-76 214 0
76 -215 0
-76 215 0
76 -216 0
-76 216 0
76 -393 0
-76 393 0
66 -991 0
-66 991 0
66 -992 0
-66 992 0
133 -161 0
-133 161 0
133 -162 0
-133 162 0
133 -712 0
-133 712 0
301 133 0
-301 -133 0
103 -143 0
-103 143 0
103 -144 0
-103 144 0
103 -149 0
-103 149 0
103 -301 0
-103 301 0
933 -1210 0
-933 1210 0
933 -1211 0
-933 1211 0
933 -1224 0
-933 1224 0
1 -1244 0
-1 1244 0
1 -1245 0
-1 1245 0
448 -788 0
-448 788 0
448 -789 0
-448 789 0
572 -866 0
-572 866 0
572 -867 0
-572 867 0
870 572 0
-870 -572 0
11 -1136 0
-11 1136 0
11 -1137 0
-11 1137 0
1203 337 0
-1203 -337 0
97 -192 0
-97 192 0
97 -193 0
-97 193 0
97 -194 0
-97 194 0
97 -321 0
-97 321 0
-931 -1054 0
1199 1062 0
-1199 -1062 0
-1059 -1058 0
-1060 -1058 0
240 331 0
236 331 0
246 331 0
248 246 0
-248 -246 0
-793 -236 0
-791 -236 0
-449 -236 0
816 240 0
-816 -240 0
820 -920 0
-820 920 0
820 -921 0
-820 921 0
928 820 0
-928 -820 0
821 -928 0
-821 928 0
821 -929 0
-821 929 0
1063 821 0
1068 821 0
1070 821 0
1072 821 0
-1082 -1334 0
1083 -1334 0
1082 -1335 0
-1083 -1335 0
-1335 1063 0
-1334 1063 0
-451 -223 0
-229 -223 0
-453 -223 0
-231 -223 0
-232 224 0
-232 -453 0
-232 -229 0
-232 -451 0
-451 -225 0
-229 -225 0
-453 -225 0
-233 -225 0
227 -453 0
-227 453 0
227 -454 0
-227 454 0
227 -456 0
-227 456 0
458 227 0
-458 -227 0
-464 -458 0
-471 -458 0
461 -471 0
-461 471 0
461 -472 0
-461 472 0
529 461 0
525 461 0
527 461 0
-501 -1348 0
503 -1348 0
501 -1349 0
-503 -1349 0
586 -589 0
-586 589 0
586 -590 0
-586 590 0
586 -595 0
-586 595 0
597 586 0
-597 -586 0
120 -201 0
-120 201 0
120 -202 0
-120 202 0
120 -597 0
-120 597 0
120 -600 0
-120 600 0
17 -882 0
-17 882 0
17 -883 0
-17 883 0
-703 -525 0
-700 -525 0
-701 -525 0
707 701 0
-707 -701 0
533 -706 0
-533 706 0
533 -707 0
-533 707 0
-541 -1344 0
542 -1344 0
541 -1345 0
-542 -1345 0
-1345 533 0
-1344 533 0
374 -520 0
-374 520 0
374 -521 0
-374 521 0
374 -542 0
-374 542 0
422 -428 0
-422 428 0
422 -429 0
-422 429 0
422 -435 0
-422 435 0
434 422 0
-434 -422 0
100 -182 0
-100 182 0
100 -183 0
-100 183 0
100 -184 0
-100 184 0
100 -434 0
-100 434 0
86 -766 0
-86 766 0
86 -767 0
-86 767 0
705 -708 0
-705 708 0
705 -709 0
-705 709 0
-764 -705 0
26 -775 0
-26 775 0
26 -776 0
-26 776 0
704 -710 0
-704 710 0
704 -711 0
-704 711 0
859 704 0
858 704 0
984 858 0
-984 -858 0
983 -984 0
-983 984 0
983 -985 0
-983 985 0
16 -1007 0
-16 1007 0
16 -1008 0
-16 1008 0
510 -702 0
-510 702 0
510 -703 0
-510 703 0
517 510 0
-517 -510 0
-496 -1350 0
498 -1350 0
496 -1351 0
-498 -1351 0
136 -185 0
-136 185 0
136 -186 0
-136 186 0
136 -406 0
-136 406 0
322 136 0
-322 -136 0
32 -168 0
-32 168 0
32 -169 0
-32 169 0
32 -322 0
-32 322 0
32 -594 0
-32 594 0
71 -1166 0
-71 1166 0
71 -1167 0
-71 1167 0
524 -529 0
-524 529 0
524 -530 0
-524 530 0
524 -535 0
-524 535 0
-537 -1346 0
538 -1346 0
537 -1347 0
-538 -1347 0
-1347 524 0
-1346 524 0
96 -432 0
-96 432 0
96 -433 0
-96 433 0
96 -440 0
-96 440 0
95 -770 0
-95 770 0
95 -771 0
-95 771 0
459 -464 0
-459 464 0
459 -465 0
-459 465 0
468 459 0
-468 -459 0
460 -468 0
-460 468 0
460 -469 0
-460 469 0
-810 -460 0
-913 -460 0
-915 -460 0
-916 -460 0
415 -747 0
-415 747 0
415 -748 0
-415 748 0
574 415 0
-574 -415 0
122 -1162 0
-122 1162 0
122 -1163 0
-122 1163 0
905 -914 0
-905 914 0
905 -915 0
-905 915 0
1028 -1029 0
-1028 1029 0
1028 -1030 0
-1028 1030 0
1028 -1184 0
-1028 1184 0
1183 1028 0
-1183 -1028 0
46 -1026 0
-46 1026 0
46 -1027 0
-46 1027 0
46 -1178 0
-46 1178 0
46 -1183 0
-46 1183 0
13 -1305 0
-13 1305 0
13 -1306 0
-13 1306 0
897 -910 0
-897 910 0
897 -911 0
-897 911 0
897 -913 0
-897 913 0
63 -310 0
-63 310 0
63 -311 0
-63 311 0
63 -581 0
-63 581 0
798 -898 0
-798 898 0
798 -899 0
-798 899 0
798 -941 0
-798 941 0
31 -1154 0
-31 1154 0
31 -1155 0
-31 1155 0
878 -885 0
-878 885 0
878 -886 0
-878 886 0
878 -1019 0
-878 1019 0
888 878 0
-888 -878 0
811 -814 0
-811 814 0
811 -815 0
-811 815 0
811 -943 0
-811 943 0
117 -1287 0
-117 1287 0
117 -1288 0
-117 1288 0
131 -228 0
-131 228 0
131 -229 0
-131 229 0
131 -330 0
-131 330 0
920 131 0
922 131 0
917 -922 0
-917 922 0
917 -923 0
-917 923 0
-1056 -917 0
-1055 -917 0
-1057 -917 0
446 1055 0
-446 -1055 0
-450 -446 0
-447 -446 0
-788 -446 0
-230 -128 0
-130 -128 0
-228 -128 0
344 130 0
-344 -130 0
242 -344 0
-242 344 0
242 -345 0
-242 345 0
242 -457 0
-242 457 0
466 242 0
805 804 0
-805 -804 0
806 805 0
807 805 0
808 805 0
815 808 0
-815 -808 0
-911 -807 0
-914 -807 0
-912 -807 0
812 806 0
-812 -806 0
-910 -803 0
-908 -803 0
-904 -803 0
-906 -803 0
462 -474 0
-462 474 0
462 -475 0
-462 475 0
-518 -462 0
-699 -462 0
-698 -462 0
515 698 0
-515 -698 0
-509 -515 0
-506 -504 0
-508 -504 0
-532 -699 0
-709 -699 0
-711 -699 0
706 532 0
534 532 0
535 532 0
536 532 0
-521 -518 0
-519 -518 0
-523 -518 0
528 519 0
530 519 0
531 519 0
636 640 0
638 640 0
642 640 0
639 638 0
-639 -638 0
637 636 0
-637 -636 0
-261 -274 0
-269 -261 0
-264 -261 0
-266 -261 0
-253 -261 0
257 253 0
-257 -253 0
-271 -259 0
-265 -259 0
-285 -276 0
-281 -276 0
283 281 0
-283 -281 0
277 275 0
-277 -275 0
1109 644 0
959 1107 0
-959 -1107 0
965 959 0
945 959 0
962 959 0
-954 -945 0
-947 -945 0
-949 -945 0
-951 -945 0
1111 1106 0
688 1111 0
-688 -1111 0
685 683 0
-685 -683 0
1233 1110 0
1234 1110 0
1240 1234 0
-1240 -1234 0
1236 1233 0
-1236 -1233 0
1114 1105 0
-1114 -1105 0
1115 1114 0
1101 1114 0
1116 1114 0
1232 1116 0
-1232 -1116 0
-1102 -1101 0
-1103 -1101 0
-1104 -1101 0
1119 1115 0
-1119 -1115 0
645 643 0
647 643 0
651 645 0
-651 -645 0
622 -626 0
-622 626 0
622 -627 0
-622 627 0
663 622 0
664 622 0
670 622 0
661 622 0
659 661 0
-659 -661 0
666 659 0
-658 -657 0
-654 -657 0
656 654 0
-656 -654 0
-655 -652 0
-476 -652 0
552 476 0
-552 -476 0
621 -835 0
-621 835 0
621 -836 0
-621 836 0
-969 -621 0
-975 -621 0
970 -975 0
-970 975 0
970 -976 0
-970 976 0
-974 -1336 0
980 -1336 0
974 -1337 0
-980 -1337 0
-1337 970 0
-1336 970 0
973 -980 0
-973 980 0
973 -981 0
-973 981 0
-1175 -973 0
-1300 -973 0
48 -1300 0
-48 1300 0
48 -1301 0
-48 1301 0
1174 -1175 0
-1174 1175 0
1174 -1176 0
-1174 1176 0
1174 -1177 0
-1174 1177 0
1294 1174 0
-1294 -1174 0
107 -1294 0
-107 1294 0
107 -1295 0
-107 1295 0
-972 -1338 0
978 -1338 0
972 -1339 0
-978 -1339 0
-1339 969 0
-1338 969 0
971 -978 0
-971 978 0
971 -979 0
-971 979 0
-1176 -971 0
-1179 -971 0
14 -1179 0
-14 1179 0
14 -1180 0
-14 1180 0
823 -831 0
-823 831 0
823 -832 0
-823 832 0
620 -827 0
-620 827 0
620 -828 0
-620 828 0
831 620 0
-831 -620 0
-1360 1363 0
-1363 1360 0
1361 127 -125 0
1362 -127 125 0
-1360 1362 1361 0
839 828 125 0
-824 -828 -125 0
-824 -839 -125 0
-829 -830 -839 0
-829 -828 -841 0
-829 -839 -841 0
-840 -841 826 0
-840 -839 824 0
-840 824 826 0
-829 -830 826 0
-829 -828 824 0
-829 824 826 0
-126 125 127 0
-126 -125 -127 0
841 828 127 0
-826 -828 -127 0
-826 -841 -127 0
836 832 824 0
-842 -832 -824 0
-842 -836 -824 0
-837 -838 844 0
-837 -836 842 0
-837 842 844 0
-833 -834 844 0
-833 -832 842 0
-833 842 844 0
-843 836 832 0
-825 824 826 0
-825 -824 -826 0
836 832 826 0
-844 -832 -826 0
-844 -836 -826 0
-624 840 843 0
-843 842 844 0
-843 -842 -844 0
-840 839 841 0
-840 -839 -841 0
340 627 623 0
-631 -627 -623 0
-631 -340 -623 0
-628 -629 -340 0
-628 -627 -342 0
-628 -340 -342 0
-624 623 625 0
-624 -623 -625 0
342 627 625 0
-631 -627 -625 0
-631 -342 -625 0
-558 -559 -355 0
560 559 355 0
560 558 355 0
-894 -1048 -1050 0
-558 -56 -739 0
-1317 -89 -362 0
-1318 -1319 -362 0
1319 89 362 0
1318 89 362 0
1319 1317 362 0
1318 1317 362 0
-602 -29 -369 0
-604 -603 -369 0
603 29 369 0
604 29 369 0
603 602 369 0
604 602 369 0
-554 -555 -354 0
557 555 354 0
557 554 354 0
-554 -93 -733 0
368 479 353 0
-672 -665 -367 0
-672 -673 -367 0
-672 -674 -367 0
-549 -551 -295 0
556 551 295 0
556 549 295 0
-549 -67 -732 0
1352 484 -485 0
1353 -484 485 0
-291 1353 1352 0
372 298 288 0
-372 -298 288 0
-372 298 -288 0
372 -298 -288 0
681 680 660 0
-681 -680 660 0
-681 680 -660 0
681 -680 -660 0
-751 -752 -294 0
753 752 294 0
753 751 294 0
-751 -105 -754 0
-287 -662 -359 0
-341 340 342 0
-341 -340 -342 0
332 334 335 0
-953 -952 -854 0
955 952 854 0
955 953 854 0
1230 1231 946 0
-1230 -1231 946 0
-1230 1231 -946 0
1230 -1231 -946 0
-953 -966 -967 0
-952 -961 -958 0
1340 696 -697 0
1341 -696 697 0
-577 -578 -576 0
579 578 576 0
579 577 576 0
-577 -79 -580 0
1238 1239 849 0
-1238 -1239 849 0
-1238 1239 -849 0
1238 -1239 -849 0
1342 648 -650 0
1343 -648 650 0
-561 -36 -348 0
-564 -563 -348 0
563 36 348 0
564 36 348 0
563 561 348 0
564 561 348 0
-1041 -1042 -646 0
1043 1042 646 0
1043 1041 646 0
-1041 -57 -1195 0
1358 258 -263 0
1359 -258 263 0
-255 1359 1358 0
-1033 -1035 -254 0
1036 1035 254 0
1036 1033 254 0
-1033 -80 -1034 0
1354 641 -349 0
1355 -641 349 0
-262 1355 1354 0
-565 -104 -347 0
-567 -566 -347 0
566 104 347 0
567 104 347 0
566 565 347 0
567 565 347 0
-1187 -1188 -346 0
1189 1188 346 0
1189 1187 346 0
-1187 -54 -1312 0
1356 284 -286 0
1357 -284 286 0
-268 1357 1356 0
-1037 -1038 -282 0
1039 1038 282 0
1039 1037 282 0
-1037 -41 -1040 0
-924 -921 -249 0
926 921 249 0
926 924 249 0
-1091 -1087 -1077 0
1087 1092 1077 0
1091 1092 1077 0
1087 1084 1077 0
1091 1084 1077 0
1087 1090 1077 0
1091 1090 1077 0
1332 1095 -1094 0
1333 -1095 1094 0
1326 1221 -1220 0
1327 -1221 1220 0
-1065 1327 1326 0
1330 1099 -1098 0
1331 -1099 1098 0
-1064 1331 1330 0
1328 1208 -1209 0
1329 -1208 1209 0
-1061 1329 1328 0
818 245 238 0
-818 -245 238 0
-818 245 -238 0
818 -245 -238 0
-1243 -123 -933 0
-1246 -1245 -933 0
1245 123 933 0
1246 123 933 0
1245 1243 933 0
1246 1243 933 0
1052 1051 448 0
-1052 -1051 448 0
-1052 1051 -448 0
1052 -1051 -448 0
931 1200 1054 0
931 1058 1054 0
931 1062 1054 0
1210 938 931 0
-938 -934 -931 0
-1210 -934 -931 0
-938 -936 -931 0
-1210 -936 -931 0
-938 -1207 -931 0
-1210 -1207 -931 0
1058 1059 1060 0
1334 1082 -1083 0
1335 -1082 1083 0
-1063 1335 1334 0
-224 223 225 0
-224 -223 -225 0
458 464 471 0
1348 501 -503 0
1349 -501 503 0
1344 541 -542 0
1345 -541 542 0
-533 1345 1344 0
-423 -428 -374 0
-424 -116 -374 0
116 428 374 0
424 428 374 0
116 423 374 0
424 423 374 0
708 710 700 0
-708 -710 700 0
-708 710 -700 0
708 -710 -700 0
-763 -775 -705 0
764 775 705 0
764 763 705 0
-704 -859 -858 0
-1004 -25 -983 0
-1005 -1007 -983 0
1007 25 983 0
1005 25 983 0
1007 1004 983 0
1005 1004 983 0
1350 496 -498 0
1351 -496 498 0
1346 537 -538 0
1347 -537 538 0
-524 1347 1346 0
909 907 905 0
-909 -907 905 0
-909 907 -905 0
909 -907 -905 0
900 899 897 0
-900 -899 897 0
-900 899 -897 0
900 -899 -897 0
-1151 -9 -798 0
-1152 -1154 -798 0
1154 9 798 0
1152 9 798 0
1154 1151 798 0
1152 1151 798 0
813 814 810 0
-813 -814 810 0
-813 814 -810 0
813 -814 -810 0
-1280 -7 -811 0
-1281 -1287 -811 0
1287 7 811 0
1281 7 811 0
1287 1280 811 0
1281 1280 811 0
-131 -920 -922 0
1206 1205 447 0
-1206 -1205 447 0
-1206 1205 -447 0
1206 -1205 -447 0
474 465 242 0
-466 -465 -242 0
-466 -474 -242 0
802 800 797 0
-800 -903 -797 0
-802 -903 -797 0
-800 -845 -797 0
-802 -845 -797 0
-800 -898 -797 0
-802 -898 -797 0
509 526 515 0
509 504 515 0
509 516 515 0
514 513 509 0
-513 -702 -509 0
-514 -702 -509 0
-513 -511 -509 0
-514 -511 -509 0
-513 -512 -509 0
-514 -512 -509 0
504 506 508 0
261 275 274 0
261 276 274 0
261 259 274 0
259 271 265 0
276 285 281 0
-1109 -1105 -644 0
-1109 -1106 -644 0
-1109 -1107 -644 0
-1111 -1112 -1106 0
-1111 -1110 -1106 0
-1111 -1113 -1106 0
683 695 688 0
-695 -852 -688 0
-683 -852 -688 0
-695 -691 -688 0
-683 -691 -688 0
-695 -693 -688 0
-683 -693 -688 0
-1110 -1233 -1234 0
-643 -645 -647 0
657 652 659 0
-666 -652 -659 0
-666 -657 -659 0
657 658 654 0
652 655 476 0
621 969 975 0
1336 974 -980 0
1337 -974 980 0
-970 1337 1336 0
973 1175 1300 0
1338 972 -978 0
1339 -972 978 0
-969 1339 1338 0
971 1176 1179 0
982 981 823 0
-981 -976 -823 0
-982 -976 -823 0
-981 -977 -823 0
-982 -977 -823 0
-981 -979 -823 0
-982 -979 -823 0
-825 828 -826 841 0
-825 828 -824 839 0
-825 828 839 841 0
-632 627 -633 342 0
-632 627 -631 340 0
-632 627 340 342 0
361 358 481 363 0
674 673 665 367 0
-1090 -1084 -1092 -1077 0
1075 1080 1067 1081 0
-1067 -1069 -1071 -1073 0
-918 -331 -1054 -336 0
-336 -337 -338 -339 0
-1062 -1058 -1200 -1054 0
1207 936 934 931 0
-331 -240 -236 -246 0
236 793 791 449 0
-461 -529 -525 -527 0
525 703 700 701 0
917 1056 1055 1057 0
446 450 447 788 0
128 230 130 228 0
898 845 903 797 0
-805 -806 -807 -808 0
807 911 914 912 0
462 518 699 698 0
-516 -504 -526 -515 0
512 511 702 509 0
699 532 709 711 0
518 521 519 523 0
-519 -528 -530 -531 0
-640 -636 -638 -642 0
-259 -276 -275 -274 0
1107 1106 1105 644 0
-959 -965 -945 -962 0
1113 1110 1112 1106 0
693 691 852 688 0
-1114 -1115 -1101 -1116 0
1101 1102 1103 1104 0
979 977 976 823 0
366 290 367 368 361 0
-672 -676 -675 -677 -678 0
-665 -667 -668 -669 -671 0
290 487 370 287 293 0
340 616 128 223 332 0
342 616 128 225 332 0
848 948 853 950 851 0
267 268 270 272 273 0
-1076 -1215 -1213 -1216 -1214 0
338 789 790 792 794 0
-821 -1063 -1068 -1070 -1072 0
223 451 229 453 231 0
225 451 229 453 233 0
460 810 913 915 916 0
803 910 908 904 906 0
-532 -706 -534 -535 -536 0
261 269 264 266 253 0
945 954 947 949 951 0
-622 -663 -664 -670 -661 0
